(set-logic QF_S)
(declare-fun var0 () String)
(assert (str.in.re var0 (re.++ (re.* (re.union (str.to.re "0") (str.to.re "1"))) (re.++ (re.+ (re.union (str.to.re "222") (str.to.re "3"))) (re.++ (re.+ (re.* (str.to.re "4"))) (re.++ (re.* (re.+ (str.to.re "555"))) (re.++ (re.union (re.+ (str.to.re "66")) (re.+ (str.to.re "7"))) (re.++ (re.+ (re.union (str.to.re "8") (str.to.re "99"))) (re.++ (re.union (re.union (str.to.re "a") (str.to.re "bbb")) (re.union (str.to.re "cc") (str.to.re "dd"))) (re.++ (re.+ (re.union (str.to.re "e") (str.to.re "fff"))) (re.++ (re.* (re.* (str.to.re "gg"))) (re.++ (re.* (re.* (str.to.re "hh"))) (re.++ (re.+ (re.union (str.to.re "i") (str.to.re "j"))) (re.++ (re.union (re.+ (str.to.re "kk")) (re.+ (str.to.re "l"))) (re.++ (re.* (re.+ (str.to.re "mm"))) (re.++ (re.+ (re.* (str.to.re "nn"))) (re.++ (re.* (re.+ (str.to.re "ooo"))) (re.++ (re.* (re.* (str.to.re "ppp"))) (re.++ (re.union (re.+ (str.to.re "q")) (re.+ (str.to.re "r"))) (re.++ (re.union (re.* (str.to.re "ss")) (re.* (str.to.re "tt"))) (re.++ (re.* (re.union (str.to.re "uu") (str.to.re "vvv"))) (re.++ (re.+ (re.union (str.to.re "ww") (str.to.re "xxx"))) (re.++ (re.* (re.* (str.to.re "yy"))) (re.++ (re.union (re.union (str.to.re "zz") (str.to.re "AAA")) (re.union (str.to.re "BBB") (str.to.re "CCC"))) (re.++ (re.+ (re.union (str.to.re "DDD") (str.to.re "E"))) (re.++ (re.+ (re.+ (str.to.re "FF"))) (re.++ (re.union (re.union (str.to.re "GGG") (str.to.re "HHH")) (re.union (str.to.re "III") (str.to.re "JJJ"))) (re.++ (re.+ (re.* (str.to.re "KK"))) (re.++ (re.+ (re.union (str.to.re "LLL") (str.to.re "MMM"))) (re.++ (re.union (re.* (str.to.re "NN")) (re.* (str.to.re "OO"))) (re.++ (re.* (re.* (str.to.re "P"))) (re.++ (re.* (re.+ (str.to.re "Q"))) (re.++ (re.+ (re.union (str.to.re "R") (str.to.re "SSS"))) (re.++ (re.* (re.+ (str.to.re "T"))) (re.++ (re.+ (re.+ (str.to.re "UU"))) (re.++ (re.union (re.+ (str.to.re "V")) (re.+ (str.to.re "WWW"))) (re.++ (re.* (re.+ (str.to.re "XXX"))) (re.++ (re.* (re.+ (str.to.re "Y"))) (re.++ (re.union (re.union (str.to.re "Z") (str.to.re "!!!")) (re.union (str.to.re """""""") (str.to.re "##"))) (re.++ (re.+ (re.+ (str.to.re "$$"))) (re.++ (re.+ (re.* (str.to.re "%%%"))) (re.++ (re.union (re.+ (str.to.re "&")) (re.+ (str.to.re "''"))) (re.++ (re.* (re.+ (str.to.re "("))) (re.++ (re.* (re.* (str.to.re ")))"))) (re.++ (re.union (re.+ (str.to.re "***")) (re.+ (str.to.re "+++"))) (re.++ (re.+ (re.* (str.to.re ",,"))) (re.++ (re.+ (re.* (str.to.re "-"))) (re.++ (re.+ (re.+ (str.to.re "..."))) (re.++ (re.+ (re.* (str.to.re "/"))) (re.++ (re.union (re.union (str.to.re "::") (str.to.re ";;;")) (re.union (str.to.re "<<") (str.to.re "==="))) (re.++ (re.+ (re.+ (str.to.re ">>>"))) (re.++ (re.* (re.+ (str.to.re "?"))) (re.++ (re.union (re.* (str.to.re "@@@")) (re.* (str.to.re "[[["))) (re.++ (re.union (re.union (str.to.re "\\\\\\") (str.to.re "]]]")) (re.union (str.to.re "^^") (str.to.re "_"))) (re.++ (re.+ (re.union (str.to.re "``") (str.to.re "{{"))) (re.++ (re.+ (re.* (str.to.re "|||"))) (re.++ (re.union (re.+ (str.to.re "}}}")) (re.+ (str.to.re "~"))) (re.++ (re.union (re.union (str.to.re "0") (str.to.re "1")) (re.union (str.to.re "2") (str.to.re "3"))) (re.++ (re.union (re.* (str.to.re "4")) (re.* (str.to.re "5"))) (re.++ (re.union (re.union (str.to.re "6") (str.to.re "77")) (re.union (str.to.re "8") (str.to.re "9"))) (re.++ (re.union (re.+ (str.to.re "a")) (re.+ (str.to.re "b"))) (re.++ (re.union (re.+ (str.to.re "ccc")) (re.+ (str.to.re "d"))) (re.++ (re.* (re.+ (str.to.re "eee"))) (re.++ (re.+ (re.+ (str.to.re "f"))) (re.++ (re.+ (re.+ (str.to.re "ggg"))) (re.++ (re.* (re.* (str.to.re "h"))) (re.++ (re.* (re.union (str.to.re "i") (str.to.re "j"))) (re.++ (re.union (re.+ (str.to.re "kk")) (re.+ (str.to.re "lll"))) (re.++ (re.union (re.+ (str.to.re "mm")) (re.+ (str.to.re "nn"))) (re.++ (re.union (re.+ (str.to.re "oo")) (re.+ (str.to.re "pp"))) (re.++ (re.union (re.union (str.to.re "qq") (str.to.re "rr")) (re.union (str.to.re "sss") (str.to.re "tt"))) (re.++ (re.* (re.+ (str.to.re "uuu"))) (re.++ (re.* (re.union (str.to.re "vvv") (str.to.re "ww"))) (re.++ (re.* (re.union (str.to.re "x") (str.to.re "y"))) (re.++ (re.+ (re.union (str.to.re "z") (str.to.re "AAA"))) (re.++ (re.+ (re.+ (str.to.re "BBB"))) (re.++ (re.+ (re.* (str.to.re "CCC"))) (re.++ (re.union (re.union (str.to.re "DD") (str.to.re "E")) (re.union (str.to.re "FF") (str.to.re "GG"))) (re.++ (re.union (re.* (str.to.re "H")) (re.* (str.to.re "I"))) (re.++ (re.* (re.+ (str.to.re "JJ"))) (re.++ (re.+ (re.+ (str.to.re "K"))) (re.++ (re.+ (re.* (str.to.re "LL"))) (re.++ (re.union (re.+ (str.to.re "MM")) (re.+ (str.to.re "N"))) (re.++ (re.+ (re.+ (str.to.re "OOO"))) (re.++ (re.union (re.union (str.to.re "PP") (str.to.re "Q")) (re.union (str.to.re "RRR") (str.to.re "SS"))) (re.++ (re.+ (re.+ (str.to.re "TTT"))) (re.++ (re.+ (re.union (str.to.re "UUU") (str.to.re "VV"))) (re.++ (re.* (re.union (str.to.re "WWW") (str.to.re "X"))) (re.++ (re.+ (re.* (str.to.re "YYY"))) (re.++ (re.+ (re.* (str.to.re "ZZ"))) (re.++ (re.union (re.* (str.to.re "!")) (re.* (str.to.re """"""""))) (re.++ (re.+ (re.+ (str.to.re "##"))) (re.++ (re.union (re.union (str.to.re "$$$") (str.to.re "%")) (re.union (str.to.re "&") (str.to.re "'"))) (re.++ (re.+ (re.+ (str.to.re "("))) (re.++ (re.union (re.union (str.to.re "))") (str.to.re "*")) (re.union (str.to.re "+++") (str.to.re ",,"))) (re.++ (re.* (re.+ (str.to.re "---"))) (re.++ (re.union (re.+ (str.to.re ".")) (re.+ (str.to.re "//"))) (re.+ (re.+ (str.to.re "::"))))))))))))))))))))))))))))))))))))))))))))))))))))))))))))))))))))))))))))))))))))))))))))))))))))
(assert (not (str.in.re var0 (re.++ (re.* (re.+ (str.to.re "00"))) (re.++ (re.* (re.union (str.to.re "111") (str.to.re "2"))) (re.++ (re.union (re.* (str.to.re "33")) (re.* (str.to.re "44"))) (re.++ (re.union (re.union (str.to.re "555") (str.to.re "66")) (re.union (str.to.re "777") (str.to.re "88"))) (re.++ (re.union (re.union (str.to.re "999") (str.to.re "a")) (re.union (str.to.re "b") (str.to.re "c"))) (re.++ (re.+ (re.+ (str.to.re "d"))) (re.++ (re.union (re.+ (str.to.re "e")) (re.+ (str.to.re "ff"))) (re.++ (re.union (re.+ (str.to.re "gg")) (re.+ (str.to.re "hhh"))) (re.++ (re.* (re.* (str.to.re "i"))) (re.++ (re.union (re.* (str.to.re "j")) (re.* (str.to.re "kkk"))) (re.++ (re.* (re.union (str.to.re "lll") (str.to.re "mmm"))) (re.++ (re.union (re.+ (str.to.re "nn")) (re.+ (str.to.re "ooo"))) (re.++ (re.union (re.+ (str.to.re "p")) (re.+ (str.to.re "qq"))) (re.++ (re.union (re.* (str.to.re "rr")) (re.* (str.to.re "ss"))) (re.++ (re.* (re.* (str.to.re "ttt"))) (re.++ (re.+ (re.union (str.to.re "uu") (str.to.re "v"))) (re.++ (re.* (re.* (str.to.re "ww"))) (re.++ (re.+ (re.+ (str.to.re "xxx"))) (re.++ (re.+ (re.union (str.to.re "yyy") (str.to.re "zzz"))) (re.++ (re.+ (re.union (str.to.re "AA") (str.to.re "B"))) (re.++ (re.+ (re.+ (str.to.re "C"))) (re.++ (re.+ (re.+ (str.to.re "D"))) (re.++ (re.union (re.* (str.to.re "EE")) (re.* (str.to.re "F"))) (re.++ (re.+ (re.+ (str.to.re "G"))) (re.++ (re.+ (re.union (str.to.re "H") (str.to.re "I"))) (re.++ (re.+ (re.union (str.to.re "JJJ") (str.to.re "KK"))) (re.++ (re.* (re.* (str.to.re "LL"))) (re.++ (re.union (re.union (str.to.re "MM") (str.to.re "N")) (re.union (str.to.re "O") (str.to.re "PPP"))) (re.++ (re.* (re.* (str.to.re "Q"))) (re.++ (re.union (re.+ (str.to.re "RRR")) (re.+ (str.to.re "SSS"))) (re.++ (re.* (re.+ (str.to.re "TT"))) (re.++ (re.union (re.+ (str.to.re "U")) (re.+ (str.to.re "VVV"))) (re.++ (re.union (re.+ (str.to.re "WW")) (re.+ (str.to.re "XX"))) (re.++ (re.union (re.+ (str.to.re "Y")) (re.+ (str.to.re "ZZ"))) (re.++ (re.* (re.* (str.to.re "!!"))) (re.++ (re.union (re.+ (str.to.re """")) (re.+ (str.to.re "#"))) (re.++ (re.* (re.* (str.to.re "$$"))) (re.++ (re.union (re.+ (str.to.re "%%")) (re.+ (str.to.re "&&&"))) (re.++ (re.union (re.* (str.to.re "'''")) (re.* (str.to.re "(("))) (re.++ (re.+ (re.union (str.to.re ")") (str.to.re "***"))) (re.++ (re.* (re.* (str.to.re "+++"))) (re.++ (re.* (re.* (str.to.re ",,"))) (re.++ (re.+ (re.* (str.to.re "---"))) (re.++ (re.+ (re.* (str.to.re "."))) (re.++ (re.+ (re.union (str.to.re "//") (str.to.re ":::"))) (re.++ (re.+ (re.+ (str.to.re ";;;"))) (re.++ (re.union (re.+ (str.to.re "<<<")) (re.+ (str.to.re "="))) (re.++ (re.* (re.+ (str.to.re ">"))) (re.++ (re.union (re.union (str.to.re "?") (str.to.re "@")) (re.union (str.to.re "[[[") (str.to.re "\\\\\\"))) (re.++ (re.* (re.union (str.to.re "]]]") (str.to.re "^^"))) (re.++ (re.* (re.union (str.to.re "___") (str.to.re "``"))) (re.++ (re.+ (re.* (str.to.re "{{{"))) (re.++ (re.union (re.union (str.to.re "|||") (str.to.re "}}")) (re.union (str.to.re "~~") (str.to.re "000"))) (re.++ (re.* (re.* (str.to.re "11"))) (re.++ (re.union (re.+ (str.to.re "22")) (re.+ (str.to.re "333"))) (re.++ (re.union (re.union (str.to.re "44") (str.to.re "555")) (re.union (str.to.re "6") (str.to.re "77"))) (re.++ (re.* (re.* (str.to.re "888"))) (re.++ (re.* (re.union (str.to.re "999") (str.to.re "a"))) (re.++ (re.* (re.* (str.to.re "bbb"))) (re.++ (re.union (re.+ (str.to.re "ccc")) (re.+ (str.to.re "ddd"))) (re.++ (re.* (re.* (str.to.re "ee"))) (re.++ (re.* (re.* (str.to.re "ff"))) (re.++ (re.* (re.* (str.to.re "g"))) (re.++ (re.* (re.* (str.to.re "hh"))) (re.++ (re.* (re.union (str.to.re "iii") (str.to.re "jjj"))) (re.++ (re.* (re.union (str.to.re "kk") (str.to.re "ll"))) (re.++ (re.+ (re.+ (str.to.re "mmm"))) (re.++ (re.+ (re.union (str.to.re "n") (str.to.re "oo"))) (re.++ (re.+ (re.* (str.to.re "ppp"))) (re.++ (re.union (re.* (str.to.re "q")) (re.* (str.to.re "rrr"))) (re.++ (re.union (re.union (str.to.re "s") (str.to.re "tt")) (re.union (str.to.re "u") (str.to.re "vvv"))) (re.++ (re.union (re.union (str.to.re "www") (str.to.re "xx")) (re.union (str.to.re "yy") (str.to.re "zz"))) (re.++ (re.+ (re.union (str.to.re "A") (str.to.re "BB"))) (re.++ (re.* (re.* (str.to.re "CC"))) (re.++ (re.union (re.union (str.to.re "D") (str.to.re "EE")) (re.union (str.to.re "FFF") (str.to.re "G"))) (re.++ (re.* (re.+ (str.to.re "H"))) (re.++ (re.union (re.* (str.to.re "II")) (re.* (str.to.re "JJ"))) (re.++ (re.+ (re.union (str.to.re "K") (str.to.re "LL"))) (re.++ (re.+ (re.+ (str.to.re "M"))) (re.++ (re.* (re.+ (str.to.re "NN"))) (re.++ (re.+ (re.* (str.to.re "O"))) (re.++ (re.+ (re.union (str.to.re "PP") (str.to.re "Q"))) (re.++ (re.+ (re.+ (str.to.re "R"))) (re.++ (re.* (re.* (str.to.re "SSS"))) (re.++ (re.+ (re.* (str.to.re "TTT"))) (re.++ (re.union (re.* (str.to.re "UU")) (re.* (str.to.re "V"))) (re.++ (re.+ (re.union (str.to.re "W") (str.to.re "X"))) (re.++ (re.* (re.+ (str.to.re "YYY"))) (re.++ (re.* (re.+ (str.to.re "ZZZ"))) (re.++ (re.union (re.* (str.to.re "!")) (re.* (str.to.re """"""""))) (re.++ (re.+ (re.+ (str.to.re "#"))) (re.++ (re.union (re.* (str.to.re "$$")) (re.* (str.to.re "%%"))) (re.++ (re.+ (re.* (str.to.re "&&"))) (re.++ (re.* (re.* (str.to.re "'"))) (re.++ (re.+ (re.* (str.to.re "("))) (re.+ (re.+ (str.to.re ")")))))))))))))))))))))))))))))))))))))))))))))))))))))))))))))))))))))))))))))))))))))))))))))))))))))
(check-sat)